3 3 2
25 2 3 1 174 2 13 0 121 1 150 2 73 1 149 0 175 2 16 0 77 2 10 1 110 0 110 2 17 1 98 0 77 2 188 1 102 2 24 1 126 0 59 2 163 1 130 0 62 2 132 
25 1 99 0 189 1 187 2 44 1 29 0 89 1 147 0 76 2 64 0 160 2 35 1 14 0 97 2 175 0 190 2 111 0 194 2 7 0 143 2 78 1 134 0 83 1 186 2 7 1 63 
25 0 47 2 13 0 27 1 121 0 46 1 183 0 151 2 134 1 173 2 64 0 154 1 186 2 178 1 163 2 76 1 161 0 112 1 23 2 195 0 101 1 74 0 180 1 120 2 27 0 128 

-------------
